(set-info :smt-lib-version 2.6)
(set-logic QF_LRA)
(set-info :source | Clock Synchronization. Bruno Dutertre (bruno@csl.sri.com) |)
(set-info :category "industrial")
(set-info :status unsat)
(declare-fun x_0 () Real)
(declare-fun x_1 () Real)
(declare-fun x_2 () Real)
(declare-fun x_3 () Real)
(declare-fun x_4 () Real)
(declare-fun x_5 () Real)
(declare-fun x_6 () Real)
(declare-fun x_7 () Real)
(declare-fun x_8 () Real)
(declare-fun x_9 () Real)
(declare-fun x_10 () Real)
(declare-fun x_11 () Real)
(declare-fun x_12 () Real)
(declare-fun x_13 () Real)
(declare-fun x_14 () Real)
(declare-fun x_15 () Real)
(declare-fun x_16 () Real)
(declare-fun x_17 () Real)
(declare-fun x_18 () Real)
(declare-fun x_19 () Real)
(declare-fun x_20 () Real)
(declare-fun x_21 () Real)
(declare-fun x_22 () Real)
(declare-fun x_23 () Real)
(declare-fun x_24 () Real)
(declare-fun x_25 () Real)
(declare-fun x_26 () Real)
(declare-fun x_27 () Real)
(declare-fun x_28 () Real)
(declare-fun x_29 () Real)
(declare-fun x_30 () Real)
(declare-fun x_31 () Real)
(declare-fun x_32 () Real)
(declare-fun x_33 () Real)
(declare-fun x_34 () Real)
(declare-fun x_35 () Real)
(declare-fun x_36 () Real)
(declare-fun x_37 () Real)
(declare-fun x_38 () Real)
(declare-fun x_39 () Real)
(declare-fun x_40 () Real)
(declare-fun x_41 () Real)
(declare-fun x_42 () Real)
(declare-fun x_43 () Real)
(declare-fun x_44 () Real)
(declare-fun x_45 () Real)
(declare-fun x_46 () Real)
(declare-fun x_47 () Real)
(declare-fun x_48 () Real)
(declare-fun x_49 () Real)
(declare-fun x_50 () Real)
(declare-fun x_51 () Real)
(declare-fun x_52 () Real)
(declare-fun x_53 () Real)
(declare-fun x_54 () Real)
(declare-fun x_55 () Real)
(declare-fun x_56 () Real)
(declare-fun x_57 () Real)
(declare-fun x_58 () Real)
(declare-fun x_59 () Real)
(declare-fun x_60 () Real)
(declare-fun x_61 () Real)
(declare-fun x_62 () Real)
(declare-fun x_63 () Real)
(declare-fun x_64 () Real)
(declare-fun x_65 () Real)
(declare-fun x_66 () Real)
(declare-fun x_67 () Real)
(declare-fun x_68 () Real)
(declare-fun x_69 () Real)
(declare-fun x_70 () Real)
(declare-fun x_71 () Real)
(declare-fun x_72 () Real)
(declare-fun x_73 () Real)
(declare-fun x_74 () Real)
(declare-fun x_75 () Real)
(declare-fun x_76 () Real)
(declare-fun x_77 () Real)
(declare-fun x_78 () Real)
(declare-fun x_79 () Real)
(declare-fun x_80 () Real)
(declare-fun x_81 () Real)
(assert (let ((?v_69 (<= x_19 x_42)) (?v_73 (<= x_22 x_42)) (?v_77 (<= x_25 x_42)) (?v_81 (<= x_28 x_42)) (?v_85 (<= x_31 x_42)) (?v_89 (<= x_34 x_42)) (?v_93 (<= x_37 x_42)) (?v_97 (<= x_40 x_42)) (?v_21 (= x_49 x_42)) (?v_22 (= x_50 x_42)) (?v_23 (= x_51 x_42)) (?v_24 (= x_52 x_42)) (?v_25 (= x_53 x_42)) (?v_26 (= x_54 x_42)) (?v_27 (= x_55 x_42)) (?v_28 (= x_56 x_42))) (let ((?v_45 (not ?v_21)) (?v_48 (not ?v_22)) (?v_51 (not ?v_23)) (?v_54 (not ?v_24)) (?v_57 (not ?v_25)) (?v_60 (not ?v_26)) (?v_63 (not ?v_27)) (?v_66 (not ?v_28)) (?v_20 (+ (+ x_42 x_43) x_44))) (let ((?v_70 (= x_49 ?v_20)) (?v_74 (= x_50 ?v_20)) (?v_78 (= x_51 ?v_20)) (?v_82 (= x_52 ?v_20)) (?v_86 (= x_53 ?v_20)) (?v_90 (= x_54 ?v_20)) (?v_94 (= x_55 ?v_20)) (?v_98 (= x_56 ?v_20))) (let ((?v_125 (not ?v_70))) (let ((?v_101 (and ?v_69 ?v_125)) (?v_126 (not ?v_74))) (let ((?v_104 (and ?v_73 ?v_126)) (?v_127 (not ?v_78))) (let ((?v_107 (and ?v_77 ?v_127)) (?v_128 (not ?v_82))) (let ((?v_110 (and ?v_81 ?v_128)) (?v_129 (not ?v_86))) (let ((?v_113 (and ?v_85 ?v_129)) (?v_130 (not ?v_90))) (let ((?v_116 (and ?v_89 ?v_130)) (?v_131 (not ?v_94))) (let ((?v_119 (and ?v_93 ?v_131)) (?v_132 (not ?v_98))) (let ((?v_122 (and ?v_97 ?v_132)) (?v_2 (- x_1 x_18)) (?v_3 (- x_19 x_20)) (?v_4 (- x_2 x_21)) (?v_5 (- x_22 x_23)) (?v_6 (- x_3 x_24)) (?v_7 (- x_25 x_26)) (?v_8 (- x_4 x_27)) (?v_9 (- x_28 x_29)) (?v_10 (- x_5 x_30)) (?v_11 (- x_31 x_32)) (?v_12 (- x_6 x_33)) (?v_13 (- x_34 x_35)) (?v_14 (- x_7 x_36)) (?v_15 (- x_37 x_38)) (?v_16 (- x_8 x_39)) (?v_17 (- x_40 x_41)) (?v_18 (- x_42 x_47)) (?v_19 (- x_42 x_48)) (?v_29 (- x_1 x_10)) (?v_30 (- x_19 x_57)) (?v_31 (- x_2 x_11)) (?v_32 (- x_22 x_58)) (?v_33 (- x_3 x_12)) (?v_34 (- x_25 x_59)) (?v_35 (- x_4 x_13)) (?v_36 (- x_28 x_60)) (?v_37 (- x_5 x_14)) (?v_38 (- x_31 x_61)) (?v_39 (- x_6 x_15)) (?v_40 (- x_34 x_62)) (?v_41 (- x_7 x_16)) (?v_42 (- x_37 x_63)) (?v_43 (- x_8 x_17)) (?v_44 (- x_40 x_64)) (?v_46 (- x_1 x_65)) (?v_47 (- x_19 x_42)) (?v_49 (- x_2 x_66)) (?v_50 (- x_22 x_42)) (?v_52 (- x_3 x_67)) (?v_53 (- x_25 x_42)) (?v_55 (- x_4 x_68)) (?v_56 (- x_28 x_42)) (?v_58 (- x_5 x_69)) (?v_59 (- x_31 x_42)) (?v_61 (- x_6 x_70)) (?v_62 (- x_34 x_42)) (?v_64 (- x_7 x_71)) (?v_65 (- x_37 x_42)) (?v_67 (- x_8 x_72)) (?v_68 (- x_40 x_42)) (?v_102 (- x_65 x_10))) (let ((?v_71 (* ?v_102 1000)) (?v_72 (* (- x_65 x_17) 1000)) (?v_75 (* (- x_66 x_10) 1000)) (?v_76 (* (- x_66 x_17) 1000)) (?v_79 (* (- x_67 x_10) 1000)) (?v_80 (* (- x_67 x_17) 1000)) (?v_83 (* (- x_68 x_10) 1000)) (?v_84 (* (- x_68 x_17) 1000)) (?v_87 (* (- x_69 x_10) 1000)) (?v_88 (* (- x_69 x_17) 1000)) (?v_91 (* (- x_70 x_10) 1000)) (?v_92 (* (- x_70 x_17) 1000)) (?v_95 (* (- x_71 x_10) 1000)) (?v_96 (* (- x_71 x_17) 1000)) (?v_99 (* (- x_72 x_10) 1000)) (?v_123 (- x_72 x_17))) (let ((?v_100 (* ?v_123 1000)) (?v_103 (- x_42 x_57)) (?v_105 (- x_66 x_11)) (?v_106 (- x_42 x_58)) (?v_108 (- x_67 x_12)) (?v_109 (- x_42 x_59)) (?v_111 (- x_68 x_13)) (?v_112 (- x_42 x_60)) (?v_114 (- x_69 x_14)) (?v_115 (- x_42 x_61)) (?v_117 (- x_70 x_15)) (?v_118 (- x_42 x_62)) (?v_120 (- x_71 x_16)) (?v_121 (- x_42 x_63)) (?v_124 (- x_42 x_64)) (?v_133 (- x_18 x_65)) (?v_135 (- x_21 x_66)) (?v_137 (- x_24 x_67)) (?v_138 (- x_27 x_68)) (?v_139 (- x_30 x_69)) (?v_140 (- x_33 x_70)) (?v_141 (- x_36 x_71)) (?v_142 (- x_39 x_72)) (?v_0 (+ x_0 (/ 1001 1000))) (?v_1 (+ x_9 (/ 1001 1000))) (?v_134 (* (* x_44 999) (/ 1 1000))) (?v_136 (* (* x_44 1001) (/ 1 1000))) (?v_143 (+ (+ (+ x_45 x_46) (* (* (+ x_47 x_44) 2) (/ 1 999))) (/ 2335 666)))) (and (and (and (and (and (and (and (and (and (and (and (and (and (and (and (and (and (and (and (and (and (and (and (and (and (and (and (and (and (and (and (and (and (and (and (and (and (and (and (and (and (and (and (and (and (and (and (and (and (and (and (and (and (and (and (and (and (and (and (and (and (and (and (and (and (and (and (and (and (and (and (and (and (and (and (and (and (and (and (and (and (and (and (and (and (and (and (and (and (and (and (and (and (and (and (and (and (and (and (and (and (and (and (and (and (and (and (and (and (and (and (and (and (and (and (and (and (and (and (and (and (and (and (and (and (and (and (and (and (and (and (and (and (and (and (and (and (and (and (and (and (and (and (and (and (and (and (and (and (and (and (and (and (and (and (and (and (and (and (and (and (and (and (and (and (and (and (and (and (and (and (and (and (and (and (and (and (and (and (and (and (and (and (and (and (and (and (and (and (and (and (and (and (and (not (<= x_43 0)) (not (<= x_44 0))) (not (<= x_45 0))) (not (< x_46 (+ x_45 (* (* (+ (* (* x_44 1) (/ 1 2)) 1) 1001) (/ 1 999)))))) (< x_47 (- (* (* (- (- x_44 x_46) 1) 999) (/ 1 2)) 1))) (not (< x_47 (* (* (+ (+ (+ x_43 x_45) x_46) (/ 1501 1000)) 1001) (/ 1 999))))) (not (<= x_48 0))) (<= x_48 (- x_43 (+ (+ x_45 (* (* (+ x_44 2) 1001) (/ 1 999))) (/ 1 2))))) (<= x_0 x_1)) (<= x_0 x_2)) (<= x_0 x_3)) (<= x_0 x_4)) (<= x_0 x_5)) (<= x_0 x_6)) (<= x_0 x_7)) (<= x_0 x_8)) (<= x_1 ?v_0)) (<= x_2 ?v_0)) (<= x_3 ?v_0)) (<= x_4 ?v_0)) (<= x_5 ?v_0)) (<= x_6 ?v_0)) (<= x_7 ?v_0)) (<= x_8 ?v_0)) (<= x_9 x_10)) (<= x_9 x_11)) (<= x_9 x_12)) (<= x_9 x_13)) (<= x_9 x_14)) (<= x_9 x_15)) (<= x_9 x_16)) (<= x_9 x_17)) (<= x_10 ?v_1)) (<= x_11 ?v_1)) (<= x_12 ?v_1)) (<= x_13 ?v_1)) (<= x_14 ?v_1)) (<= x_15 ?v_1)) (<= x_16 ?v_1)) (<= x_17 ?v_1)) (<= (* (* ?v_3 999) (/ 1 1000)) ?v_2)) (<= (* (* ?v_5 999) (/ 1 1000)) ?v_4)) (<= (* (* ?v_7 999) (/ 1 1000)) ?v_6)) (<= (* (* ?v_9 999) (/ 1 1000)) ?v_8)) (<= (* (* ?v_11 999) (/ 1 1000)) ?v_10)) (<= (* (* ?v_13 999) (/ 1 1000)) ?v_12)) (<= (* (* ?v_15 999) (/ 1 1000)) ?v_14)) (<= (* (* ?v_17 999) (/ 1 1000)) ?v_16)) (<= ?v_2 (* (* ?v_3 1001) (/ 1 1000)))) (<= ?v_4 (* (* ?v_5 1001) (/ 1 1000)))) (<= ?v_6 (* (* ?v_7 1001) (/ 1 1000)))) (<= ?v_8 (* (* ?v_9 1001) (/ 1 1000)))) (<= ?v_10 (* (* ?v_11 1001) (/ 1 1000)))) (<= ?v_12 (* (* ?v_13 1001) (/ 1 1000)))) (<= ?v_14 (* (* ?v_15 1001) (/ 1 1000)))) (<= ?v_16 (* (* ?v_17 1001) (/ 1 1000)))) (<= ?v_18 x_57)) (<= ?v_18 x_58)) (<= ?v_18 x_59)) (<= ?v_18 x_60)) (<= ?v_18 x_61)) (<= ?v_18 x_62)) (<= ?v_18 x_63)) (<= ?v_18 x_64)) (<= x_57 ?v_19)) (<= x_58 ?v_19)) (<= x_59 ?v_19)) (<= x_60 ?v_19)) (<= x_61 ?v_19)) (<= x_62 ?v_19)) (<= x_63 ?v_19)) (<= x_64 ?v_19)) (<= (- x_57 x_57) x_46)) (<= (- x_58 x_57) x_46)) (<= (- x_59 x_57) x_46)) (<= (- x_60 x_57) x_46)) (<= (- x_61 x_57) x_46)) (<= (- x_62 x_57) x_46)) (<= (- x_63 x_57) x_46)) (<= (- x_64 x_57) x_46)) (<= (- x_57 x_58) x_46)) (<= (- x_58 x_58) x_46)) (<= (- x_59 x_58) x_46)) (<= (- x_60 x_58) x_46)) (<= (- x_61 x_58) x_46)) (<= (- x_62 x_58) x_46)) (<= (- x_63 x_58) x_46)) (<= (- x_64 x_58) x_46)) (<= (- x_57 x_59) x_46)) (<= (- x_58 x_59) x_46)) (<= (- x_59 x_59) x_46)) (<= (- x_60 x_59) x_46)) (<= (- x_61 x_59) x_46)) (<= (- x_62 x_59) x_46)) (<= (- x_63 x_59) x_46)) (<= (- x_64 x_59) x_46)) (<= (- x_57 x_60) x_46)) (<= (- x_58 x_60) x_46)) (<= (- x_59 x_60) x_46)) (<= (- x_60 x_60) x_46)) (<= (- x_61 x_60) x_46)) (<= (- x_62 x_60) x_46)) (<= (- x_63 x_60) x_46)) (<= (- x_64 x_60) x_46)) (<= (- x_57 x_61) x_46)) (<= (- x_58 x_61) x_46)) (<= (- x_59 x_61) x_46)) (<= (- x_60 x_61) x_46)) (<= (- x_61 x_61) x_46)) (<= (- x_62 x_61) x_46)) (<= (- x_63 x_61) x_46)) (<= (- x_64 x_61) x_46)) (<= (- x_57 x_62) x_46)) (<= (- x_58 x_62) x_46)) (<= (- x_59 x_62) x_46)) (<= (- x_60 x_62) x_46)) (<= (- x_61 x_62) x_46)) (<= (- x_62 x_62) x_46)) (<= (- x_63 x_62) x_46)) (<= (- x_64 x_62) x_46)) (<= (- x_57 x_63) x_46)) (<= (- x_58 x_63) x_46)) (<= (- x_59 x_63) x_46)) (<= (- x_60 x_63) x_46)) (<= (- x_61 x_63) x_46)) (<= (- x_62 x_63) x_46)) (<= (- x_63 x_63) x_46)) (<= (- x_64 x_63) x_46)) (<= (- x_57 x_64) x_46)) (<= (- x_58 x_64) x_46)) (<= (- x_59 x_64) x_46)) (<= (- x_60 x_64) x_46)) (<= (- x_61 x_64) x_46)) (<= (- x_62 x_64) x_46)) (<= (- x_63 x_64) x_46)) (<= (- x_64 x_64) x_46)) (or (and ?v_21 (<= x_19 x_73)) ?v_70)) (or (and ?v_22 (<= x_22 x_73)) ?v_74)) (or (and ?v_23 (<= x_25 x_73)) ?v_78)) (or (and ?v_24 (<= x_28 x_73)) ?v_82)) (or (and ?v_25 (<= x_31 x_73)) ?v_86)) (or (and ?v_26 (<= x_34 x_73)) ?v_90)) (or (and ?v_27 (<= x_37 x_73)) ?v_94)) (or (and ?v_28 (<= x_40 x_73)) ?v_98)) (or (or (or (or (or (or (or ?v_21 ?v_22) ?v_23) ?v_24) ?v_25) ?v_26) ?v_27) ?v_28)) (or ?v_45 (and (<= (* (* ?v_30 999) (/ 1 1000)) ?v_29) (<= ?v_29 (* (* ?v_30 1001) (/ 1 1000)))))) (or ?v_48 (and (<= (* (* ?v_32 999) (/ 1 1000)) ?v_31) (<= ?v_31 (* (* ?v_32 1001) (/ 1 1000)))))) (or ?v_51 (and (<= (* (* ?v_34 999) (/ 1 1000)) ?v_33) (<= ?v_33 (* (* ?v_34 1001) (/ 1 1000)))))) (or ?v_54 (and (<= (* (* ?v_36 999) (/ 1 1000)) ?v_35) (<= ?v_35 (* (* ?v_36 1001) (/ 1 1000)))))) (or ?v_57 (and (<= (* (* ?v_38 999) (/ 1 1000)) ?v_37) (<= ?v_37 (* (* ?v_38 1001) (/ 1 1000)))))) (or ?v_60 (and (<= (* (* ?v_40 999) (/ 1 1000)) ?v_39) (<= ?v_39 (* (* ?v_40 1001) (/ 1 1000)))))) (or ?v_63 (and (<= (* (* ?v_42 999) (/ 1 1000)) ?v_41) (<= ?v_41 (* (* ?v_42 1001) (/ 1 1000)))))) (or ?v_66 (and (<= (* (* ?v_44 999) (/ 1 1000)) ?v_43) (<= ?v_43 (* (* ?v_44 1001) (/ 1 1000)))))) (or (or ?v_45 ?v_69) (and (and (not (< x_0 x_65)) (<= (* (* ?v_47 999) (/ 1 1000)) ?v_46)) (<= ?v_46 (* (* ?v_47 1001) (/ 1 1000)))))) (or (or ?v_48 ?v_73) (and (and (not (< x_0 x_66)) (<= (* (* ?v_50 999) (/ 1 1000)) ?v_49)) (<= ?v_49 (* (* ?v_50 1001) (/ 1 1000)))))) (or (or ?v_51 ?v_77) (and (and (not (< x_0 x_67)) (<= (* (* ?v_53 999) (/ 1 1000)) ?v_52)) (<= ?v_52 (* (* ?v_53 1001) (/ 1 1000)))))) (or (or ?v_54 ?v_81) (and (and (not (< x_0 x_68)) (<= (* (* ?v_56 999) (/ 1 1000)) ?v_55)) (<= ?v_55 (* (* ?v_56 1001) (/ 1 1000)))))) (or (or ?v_57 ?v_85) (and (and (not (< x_0 x_69)) (<= (* (* ?v_59 999) (/ 1 1000)) ?v_58)) (<= ?v_58 (* (* ?v_59 1001) (/ 1 1000)))))) (or (or ?v_60 ?v_89) (and (and (not (< x_0 x_70)) (<= (* (* ?v_62 999) (/ 1 1000)) ?v_61)) (<= ?v_61 (* (* ?v_62 1001) (/ 1 1000)))))) (or (or ?v_63 ?v_93) (and (and (not (< x_0 x_71)) (<= (* (* ?v_65 999) (/ 1 1000)) ?v_64)) (<= ?v_64 (* (* ?v_65 1001) (/ 1 1000)))))) (or (or ?v_66 ?v_97) (and (and (not (< x_0 x_72)) (<= (* (* ?v_68 999) (/ 1 1000)) ?v_67)) (<= ?v_67 (* (* ?v_68 1001) (/ 1 1000)))))) (or ?v_101 (and (<= x_74 (+ (+ (* (* (+ (+ (+ x_57 (* ?v_71 (/ 1 999))) x_64) (* ?v_72 (/ 1 999))) 1) (/ 1 2)) x_45) (/ 3001 1998))) (not (< x_74 (- (- (* (* (+ (+ (+ x_57 (* ?v_71 (/ 1 1001))) x_64) (* ?v_72 (/ 1 1001))) 1) (/ 1 2)) x_45) (/ 1 2))))))) (or ?v_104 (and (<= x_75 (+ (+ (* (* (+ (+ (+ x_57 (* ?v_75 (/ 1 999))) x_64) (* ?v_76 (/ 1 999))) 1) (/ 1 2)) x_45) (/ 3001 1998))) (not (< x_75 (- (- (* (* (+ (+ (+ x_57 (* ?v_75 (/ 1 1001))) x_64) (* ?v_76 (/ 1 1001))) 1) (/ 1 2)) x_45) (/ 1 2))))))) (or ?v_107 (and (<= x_76 (+ (+ (* (* (+ (+ (+ x_57 (* ?v_79 (/ 1 999))) x_64) (* ?v_80 (/ 1 999))) 1) (/ 1 2)) x_45) (/ 3001 1998))) (not (< x_76 (- (- (* (* (+ (+ (+ x_57 (* ?v_79 (/ 1 1001))) x_64) (* ?v_80 (/ 1 1001))) 1) (/ 1 2)) x_45) (/ 1 2))))))) (or ?v_110 (and (<= x_77 (+ (+ (* (* (+ (+ (+ x_57 (* ?v_83 (/ 1 999))) x_64) (* ?v_84 (/ 1 999))) 1) (/ 1 2)) x_45) (/ 3001 1998))) (not (< x_77 (- (- (* (* (+ (+ (+ x_57 (* ?v_83 (/ 1 1001))) x_64) (* ?v_84 (/ 1 1001))) 1) (/ 1 2)) x_45) (/ 1 2))))))) (or ?v_113 (and (<= x_78 (+ (+ (* (* (+ (+ (+ x_57 (* ?v_87 (/ 1 999))) x_64) (* ?v_88 (/ 1 999))) 1) (/ 1 2)) x_45) (/ 3001 1998))) (not (< x_78 (- (- (* (* (+ (+ (+ x_57 (* ?v_87 (/ 1 1001))) x_64) (* ?v_88 (/ 1 1001))) 1) (/ 1 2)) x_45) (/ 1 2))))))) (or ?v_116 (and (<= x_79 (+ (+ (* (* (+ (+ (+ x_57 (* ?v_91 (/ 1 999))) x_64) (* ?v_92 (/ 1 999))) 1) (/ 1 2)) x_45) (/ 3001 1998))) (not (< x_79 (- (- (* (* (+ (+ (+ x_57 (* ?v_91 (/ 1 1001))) x_64) (* ?v_92 (/ 1 1001))) 1) (/ 1 2)) x_45) (/ 1 2))))))) (or ?v_119 (and (<= x_80 (+ (+ (* (* (+ (+ (+ x_57 (* ?v_95 (/ 1 999))) x_64) (* ?v_96 (/ 1 999))) 1) (/ 1 2)) x_45) (/ 3001 1998))) (not (< x_80 (- (- (* (* (+ (+ (+ x_57 (* ?v_95 (/ 1 1001))) x_64) (* ?v_96 (/ 1 1001))) 1) (/ 1 2)) x_45) (/ 1 2))))))) (or ?v_122 (and (<= x_81 (+ (+ (* (* (+ (+ (+ x_57 (* ?v_99 (/ 1 999))) x_64) (* ?v_100 (/ 1 999))) 1) (/ 1 2)) x_45) (/ 3001 1998))) (not (< x_81 (- (- (* (* (+ (+ (+ x_57 (* ?v_99 (/ 1 1001))) x_64) (* ?v_100 (/ 1 1001))) 1) (/ 1 2)) x_45) (/ 1 2))))))) (or ?v_101 (and (<= (* (* ?v_103 999) (/ 1 1000)) ?v_102) (<= ?v_102 (* (* ?v_103 1001) (/ 1 1000)))))) (or ?v_104 (and (<= (* (* ?v_106 999) (/ 1 1000)) ?v_105) (<= ?v_105 (* (* ?v_106 1001) (/ 1 1000)))))) (or ?v_107 (and (<= (* (* ?v_109 999) (/ 1 1000)) ?v_108) (<= ?v_108 (* (* ?v_109 1001) (/ 1 1000)))))) (or ?v_110 (and (<= (* (* ?v_112 999) (/ 1 1000)) ?v_111) (<= ?v_111 (* (* ?v_112 1001) (/ 1 1000)))))) (or ?v_113 (and (<= (* (* ?v_115 999) (/ 1 1000)) ?v_114) (<= ?v_114 (* (* ?v_115 1001) (/ 1 1000)))))) (or ?v_116 (and (<= (* (* ?v_118 999) (/ 1 1000)) ?v_117) (<= ?v_117 (* (* ?v_118 1001) (/ 1 1000)))))) (or ?v_119 (and (<= (* (* ?v_121 999) (/ 1 1000)) ?v_120) (<= ?v_120 (* (* ?v_121 1001) (/ 1 1000)))))) (or ?v_122 (and (<= (* (* ?v_124 999) (/ 1 1000)) ?v_123) (<= ?v_123 (* (* ?v_124 1001) (/ 1 1000)))))) (or ?v_125 (= x_20 (+ x_74 x_44)))) (or ?v_126 (= x_23 (+ x_75 x_44)))) (or ?v_127 (= x_26 (+ x_76 x_44)))) (or ?v_128 (= x_29 (+ x_77 x_44)))) (or ?v_129 (= x_32 (+ x_78 x_44)))) (or ?v_130 (= x_35 (+ x_79 x_44)))) (or ?v_131 (= x_38 (+ x_80 x_44)))) (or ?v_132 (= x_41 (+ x_81 x_44)))) (or ?v_125 (and (<= ?v_134 ?v_133) (<= ?v_133 ?v_136)))) (or ?v_126 (and (<= ?v_134 ?v_135) (<= ?v_135 ?v_136)))) (or ?v_127 (and (<= ?v_134 ?v_137) (<= ?v_137 ?v_136)))) (or ?v_128 (and (<= ?v_134 ?v_138) (<= ?v_138 ?v_136)))) (or ?v_129 (and (<= ?v_134 ?v_139) (<= ?v_139 ?v_136)))) (or ?v_130 (and (<= ?v_134 ?v_140) (<= ?v_140 ?v_136)))) (or ?v_131 (and (<= ?v_134 ?v_141) (<= ?v_141 ?v_136)))) (or ?v_132 (and (<= ?v_134 ?v_142) (<= ?v_142 ?v_136)))) (= x_73 (+ x_42 x_44))) (or (or (or (or (or (or (or (or (or (or (or (or (or (or (or (or (or (or (or (or (or (or (or (or (or (or (or (or (or (or (or (or (or (or (or (or (or (or (or (or (or (or (or (or (or (or (or (or (or (or (or (or (or (or (or (or (or (or (or (or (or (or (or (not (<= (- x_19 x_19) ?v_143)) (not (<= (- x_22 x_19) ?v_143))) (not (<= (- x_25 x_19) ?v_143))) (not (<= (- x_28 x_19) ?v_143))) (not (<= (- x_31 x_19) ?v_143))) (not (<= (- x_34 x_19) ?v_143))) (not (<= (- x_37 x_19) ?v_143))) (not (<= (- x_40 x_19) ?v_143))) (not (<= (- x_19 x_22) ?v_143))) (not (<= (- x_22 x_22) ?v_143))) (not (<= (- x_25 x_22) ?v_143))) (not (<= (- x_28 x_22) ?v_143))) (not (<= (- x_31 x_22) ?v_143))) (not (<= (- x_34 x_22) ?v_143))) (not (<= (- x_37 x_22) ?v_143))) (not (<= (- x_40 x_22) ?v_143))) (not (<= (- x_19 x_25) ?v_143))) (not (<= (- x_22 x_25) ?v_143))) (not (<= (- x_25 x_25) ?v_143))) (not (<= (- x_28 x_25) ?v_143))) (not (<= (- x_31 x_25) ?v_143))) (not (<= (- x_34 x_25) ?v_143))) (not (<= (- x_37 x_25) ?v_143))) (not (<= (- x_40 x_25) ?v_143))) (not (<= (- x_19 x_28) ?v_143))) (not (<= (- x_22 x_28) ?v_143))) (not (<= (- x_25 x_28) ?v_143))) (not (<= (- x_28 x_28) ?v_143))) (not (<= (- x_31 x_28) ?v_143))) (not (<= (- x_34 x_28) ?v_143))) (not (<= (- x_37 x_28) ?v_143))) (not (<= (- x_40 x_28) ?v_143))) (not (<= (- x_19 x_31) ?v_143))) (not (<= (- x_22 x_31) ?v_143))) (not (<= (- x_25 x_31) ?v_143))) (not (<= (- x_28 x_31) ?v_143))) (not (<= (- x_31 x_31) ?v_143))) (not (<= (- x_34 x_31) ?v_143))) (not (<= (- x_37 x_31) ?v_143))) (not (<= (- x_40 x_31) ?v_143))) (not (<= (- x_19 x_34) ?v_143))) (not (<= (- x_22 x_34) ?v_143))) (not (<= (- x_25 x_34) ?v_143))) (not (<= (- x_28 x_34) ?v_143))) (not (<= (- x_31 x_34) ?v_143))) (not (<= (- x_34 x_34) ?v_143))) (not (<= (- x_37 x_34) ?v_143))) (not (<= (- x_40 x_34) ?v_143))) (not (<= (- x_19 x_37) ?v_143))) (not (<= (- x_22 x_37) ?v_143))) (not (<= (- x_25 x_37) ?v_143))) (not (<= (- x_28 x_37) ?v_143))) (not (<= (- x_31 x_37) ?v_143))) (not (<= (- x_34 x_37) ?v_143))) (not (<= (- x_37 x_37) ?v_143))) (not (<= (- x_40 x_37) ?v_143))) (not (<= (- x_19 x_40) ?v_143))) (not (<= (- x_22 x_40) ?v_143))) (not (<= (- x_25 x_40) ?v_143))) (not (<= (- x_28 x_40) ?v_143))) (not (<= (- x_31 x_40) ?v_143))) (not (<= (- x_34 x_40) ?v_143))) (not (<= (- x_37 x_40) ?v_143))) (not (<= (- x_40 x_40) ?v_143)))))))))))))))))))
(check-sat)
(exit)
